# Solution for model p01_budget_0p030
# Objective value = 3.0000000000062366e-02
Risk 3.0000000000062366e-02
0 0
1 0
3 0.001
4 30.001
5 3.0002000000000002e+01
6 40.002
7 43.2448527407192
9 8.8786288921784191e+01
c(0,1)_Rl 0.001
c(0,1)_Ru 0
c(0,3)_Rl 0
c(0,3)_Ru 0
c(3,4)_Rl 0
c(3,4)_Ru 0
c(4,5)_Rl 0
c(4,5)_Ru 0
c(3,5)_Rl 0
c(3,5)_Ru 0
c(1,2)_l 0
c(1,2)_u 4.3243852740719205e+01
c(2,7)_Fl 0
c(2,7)_Fu 1.7397597888068661e-02
c(1,7)_Rl 0
c(1,7)_Ru 0
c(5,6)_Rl 0
c(5,6)_Ru 0
c(3,6)_Rl 0
c(3,6)_Ru 0
c(7,8)_l 0
c(7,8)_u 4.5540436181064983e+01
c(1,8)_Fl 0
c(1,8)_Fu 6.3012010559968523e-03
c(0,9)_Rl 0
c(0,9)_Ru 5.2785688921784192e+01
c(8,9)_Fl 0
c(8,9)_Fu 6.3012010559968523e-03
c(6,9)_Rl 0
c(6,9)_Ru 0
Cost 5.2786688921784190e+01
